833 478
55 44
154 118
232 255
229 402
81 471
331 493
291 659
145 747
253 813
244 953
367 87
331 497
289 662
514 195
431 346
468 653
406 826
446 1007
746 219
594 402
711 414
717 524
616 607
680 674
551 701
577 839
624 989
871 295
862 451
833 555
787 820
839 956
981 165
1031 364
990 448
1074 595
1012 722
986 824
1163 274
1218 465
1166 778
1136 934
831 76
